
Log started (V12.10.0.0) Fri Apr  2 08:09:59 2021

Warning, line 2354: Name 's34' does not exist.

Problem 'asset.lp' read.
Read time = 0.01 sec. (0.21 ticks)
New value for default parallel thread count: 1
New value for time limit in seconds: 300
Version identifier: 12.10.0.0 | 2019-11-26 | 843d4de
CPXPARAM_Threads                                 1
CPXPARAM_TimeLimit                               300
Found incumbent of value 0.000000 after 0.00 sec. (0.06 ticks)
Tried aggregator 7 times.
MIP Presolve eliminated 492 rows and 252 columns.
MIP Presolve modified 2367 coefficients.
Aggregator did 741 substitutions.
Reduced MIP has 719 rows, 894 columns, and 3600 nonzeros.
Reduced MIP has 802 binaries, 63 generals, 0 SOSs, and 0 indicators.
Presolve time = 0.02 sec. (19.74 ticks)
Probing fixed 66 vars, tightened 14 bounds.
Probing time = 0.01 sec. (7.18 ticks)
Cover probing fixed 0 vars, tightened 32 bounds.
Tried aggregator 1 time.
MIP Presolve eliminated 137 rows and 105 columns.
MIP Presolve modified 364 coefficients.
Reduced MIP has 582 rows, 782 columns, and 2989 nonzeros.
Reduced MIP has 718 binaries, 41 generals, 0 SOSs, and 0 indicators.
Presolve time = 0.00 sec. (2.92 ticks)
Probing time = 0.00 sec. (2.80 ticks)
Tried aggregator 1 time.
Detecting symmetries...
MIP Presolve modified 138 coefficients.
Reduced MIP has 582 rows, 782 columns, and 2989 nonzeros.
Reduced MIP has 718 binaries, 41 generals, 0 SOSs, and 0 indicators.
Presolve time = 0.00 sec. (2.07 ticks)
Probing time = 0.00 sec. (2.79 ticks)
Clique table members: 2038.
MIP emphasis: balance optimality and feasibility.
MIP search method: dynamic search.
Parallel mode: none, using 1 thread.
Root relaxation solution time = 0.01 sec. (9.18 ticks)

        Nodes                                         Cuts/
   Node  Left     Objective  IInf  Best Integer    Best Bound    ItCnt     Gap

*     0+    0                            0.0000      570.0000              --- 
      0     0      360.9717   153        0.0000      360.9717      489     --- 
      0     0      344.6959   153        0.0000     Cuts: 245      730     --- 
      0     0      337.7389   153        0.0000     Cuts: 223      917     --- 
      0     0      334.2973   153        0.0000     Cuts: 123     1034     --- 
      0     0      332.3440   153        0.0000     Cuts: 102     1118     --- 
      0     0      331.1207   153        0.0000     Cuts: 106     1214     --- 
      0     0      330.3348   153        0.0000      Cuts: 96     1321     --- 
      0     0      329.5575   153        0.0000      Cuts: 63     1395     --- 
      0     0      328.4295   153        0.0000      Cuts: 79     1465     --- 
      0     0      327.6130   153        0.0000      Cuts: 61     1538     --- 
      0     0      327.2423   153        0.0000      Cuts: 69     1618     --- 
      0     0      326.6481   153        0.0000      Cuts: 65     1742     --- 
      0     0      325.1175   153        0.0000      Cuts: 71     1899     --- 
      0     0      324.3842   153        0.0000      Cuts: 96     1994     --- 
      0     0      323.3530   153        0.0000      Cuts: 96     2076     --- 
      0     0      322.2116   153        0.0000      Cuts: 74     2155     --- 
*     0+    0                           45.0000      322.2116           616.03%
*     0+    0                           95.0000      322.2116           239.17%
      0     0        cutoff             95.0000      322.2116     2155  239.17%
      0     0      321.3829   153       95.0000      Cuts: 90     2255  238.30%
      0     0      320.5747   153       95.0000      Cuts: 71     2360  237.45%
      0     0      319.3139   153       95.0000      Cuts: 54     2421  236.12%
      0     0      318.3105   153       95.0000      Cuts: 57     2511  235.06%
      0     0      317.2486   153       95.0000      Cuts: 75     2612  233.95%
      0     0      315.2341   153       95.0000      Cuts: 49     2752  231.83%
      0     0      312.6478   153       95.0000     Cuts: 140     2867  229.10%
      0     0      311.0814   153       95.0000     Cuts: 100     2968  227.45%
      0     0      310.7466   153       95.0000      Cuts: 57     3018  227.10%
      0     0      309.7447   153       95.0000      Cuts: 65     3109  226.05%
      0     0      308.1825   153       95.0000      Cuts: 70     3248  224.40%
      0     0      306.2072   153       95.0000      Cuts: 83     3359  222.32%
      0     0      305.4781   153       95.0000      Cuts: 78     3441  221.56%
      0     0      305.2290   153       95.0000      Cuts: 89     3497  221.29%
      0     0      304.8782   153       95.0000      Cuts: 77     3562  220.92%
*     0+    0                          190.0000      304.8782            60.46%
      0     0      304.8280   153      190.0000      Cuts: 42     3598   60.44%
*     0+    0                          195.0000      304.8280            56.32%
      0     0      304.4938   153      195.0000      Cuts: 32     3680   56.15%
      0     0      303.7277   153      195.0000      Cuts: 58     3779   55.76%
*     0+    0                          210.0000      303.7277            44.63%
      0     0      303.1803   153      210.0000      Cuts: 63     3843   44.37%
*     0+    0                          215.0000      303.1803            41.01%
      0     0      303.1454   153      215.0000      Cuts: 45     3871   41.00%
      0     2      303.1454   197      215.0000      303.1057     3871   40.98%
Elapsed time = 0.55 sec. (548.24 ticks, tree = 0.01 MB, solutions = 6)
*    50+   46                          220.0000      301.7644            37.17%
    140   109      271.6493   131      220.0000      300.9263     8461   36.78%
*   150+  112                          225.0000      300.9263            33.75%
    283   234      265.8151   113      225.0000      299.4833    12552   33.10%
    457   382      232.5000    16      225.0000      297.9706    17255   32.43%
    586   477      276.3257   163      225.0000      295.5782    22091   31.37%
*   720+  526                          230.0000      294.6023            28.09%
    748   537      260.4810    76      230.0000      294.3952    27633   28.00%
    897   655      241.3512    94      230.0000      293.5534    33091   27.63%

Performing restart 1

Repeating presolve.
Tried aggregator 2 times.
MIP Presolve modified 571 coefficients.
Aggregator did 9 substitutions.
Reduced MIP has 573 rows, 773 columns, and 2532 nonzeros.
Reduced MIP has 709 binaries, 41 generals, 0 SOSs, and 0 indicators.
Presolve time = 0.00 sec. (3.63 ticks)
Tried aggregator 2 times.
MIP Presolve modified 9 coefficients.
Aggregator did 1 substitutions.
Reduced MIP has 572 rows, 772 columns, and 2530 nonzeros.
Reduced MIP has 708 binaries, 41 generals, 0 SOSs, and 0 indicators.
Presolve time = 0.00 sec. (2.89 ticks)
Represolve time = 0.03 sec. (22.00 ticks)
    966     0      272.2037   185      230.0000     Cuts: 243    36901   18.35%
    966     0      265.1610   185      230.0000     Cuts: 168    37032   15.29%
    966     0      261.1337   185      230.0000      Cuts: 54    37170   13.54%
    966     0      260.4888   185      230.0000      Cuts: 83    37236   13.26%
    966     0      259.8109   185      230.0000      Cuts: 59    37326   12.96%
*   966+    0                          235.0000      259.8109            10.56%
    966     0      257.3172   185      235.0000      Cuts: 74    37405    9.50%
    966     0      256.2984   185      235.0000      Cuts: 45    37441    9.06%
    966     0      255.5943   185      235.0000      Cuts: 61    37493    8.76%
    966     0      255.1708   185      235.0000      Cuts: 49    37544    8.58%
    966     0      254.2248   185      235.0000      Cuts: 50    37604    8.18%
    966     0      254.0634   185      235.0000      Cuts: 31    37637    8.11%
    966     0      253.5655   185      235.0000      Cuts: 31    37683    7.90%
    966     0      253.4557   185      235.0000      Cuts: 23    37726    7.85%
    966     0      253.2785   185      235.0000      Cuts: 20    37761    7.78%
    966     0      253.1295   185      235.0000      Cuts: 52    37788    7.71%
    966     0      252.8540   185      235.0000      Cuts: 22    37808    7.60%
    966     0      252.7796   185      235.0000      Cuts: 22    37825    7.57%
    966     0      252.7275   185      235.0000      Cuts: 24    37852    7.54%
    966     0      252.5240   185      235.0000      Cuts: 21    37890    7.46%
    966     0      252.5074   185      235.0000      Cuts: 16    37911    7.45%
    966     0      252.4975   185      235.0000      Cuts: 41    37956    7.45%
    966     0      252.4897   185      235.0000      Cuts: 20    37980    7.44%
    966     0      252.4833   185      235.0000      Cuts: 18    37990    7.44%
    966     0      252.4655   185      235.0000      Cuts: 28    38017    7.43%
    966     2      252.4655   102      235.0000      252.1494    38017    7.30%
   1025    34      241.0000    16      235.0000      242.5000    39004    3.19%
   1163    80        cutoff            235.0000      242.5000    40413    3.19%
   1921   198      240.0000    24      235.0000      240.2532    51369    2.24%
Elapsed time = 4.06 sec. (4459.23 ticks, tree = 0.24 MB, solutions = 10)

GUB cover cuts applied:  3
Clique cuts applied:  77
Cover cuts applied:  8
Implied bound cuts applied:  19
Flow cuts applied:  4
Mixed integer rounding cuts applied:  32
Zero-half cuts applied:  38
Lift and project cuts applied:  12
Gomory fractional cuts applied:  5

Root node processing (before b&c):
  Real time             =    0.54 sec. (543.73 ticks)
Sequential b&c:
  Real time             =    3.63 sec. (4031.39 ticks)
                          ------------
Total (root+branch&cut) =    4.18 sec. (4575.13 ticks)

Solution pool: 11 solutions saved.

MIP - Integer optimal solution:  Objective =  2.3500000000e+02
Solution time =    4.18 sec.  Iterations = 52662  Nodes = 2168
Deterministic time = 4575.13 ticks  (1095.43 ticks/sec)


Incumbent solution
Variable Name           Solution Value
F                           235.000000
y204                          1.000000
y25                           1.000000
y194                          1.000000
y221                          1.000000
y267                          1.000000
y46                           1.000000
y44                           1.000000
y86                           1.000000
y113                          1.000000
y146                          1.000000
y112                          1.000000
y201                          1.000000
y124                          1.000000
x183x46x1                     1.000000
x240x46x1                     1.000000
x176x44x1                     1.000000
x176x86x1                     1.000000
x109x113x1                    1.000000
x233x204x1                    1.000000
x117x25x1                     1.000000
x72x204x2                     1.000000
x240x146x2                    1.000000
x154x112x2                    1.000000
x154x201x2                    1.000000
x59x221x2                     2.000000
x93x267x2                     1.000000
x183x194x3                    1.000000
x109x86x3                     1.000000
x212x201x3                    1.000000
x233x44x3                     1.000000
x51x124x3                     1.000000
x106x124x3                    1.000000
x93x267x3                     1.000000
x117x25x3                     1.000000
x204x0x1                      1.000000
x204x0x2                      1.000000
x25x146x1                     1.000000
x25x194x3                     1.000000
x194x0x3                      2.000000
x221x0x2                      2.000000
x267x112x2                    1.000000
x267x113x3                    1.000000
x46x0x1                       2.000000
x44x0x1                       1.000000
x44x0x3                       1.000000
x86x0x1                       1.000000
x86x0x3                       1.000000
x113x0x1                      1.000000
x113x0x3                      1.000000
x146x0x1                      1.000000
x146x0x2                      1.000000
x112x0x2                      2.000000
x201x0x2                      1.000000
x201x0x3                      1.000000
x124x0x3                      2.000000
s72                           6.842857
s204                          8.163271
z72z204z2                     1.000000
s261                          8.177515
s98                           7.550000
s56                           8.700000
s17                           8.689086
s110                          8.715317
s189                          8.800000
s221                          8.726746
s267                          7.943011
s257                          9.030000
z72z257z2                     1.000000
s61                           9.050000
s128                          9.050000
s53                           9.110000
s77                           8.272297
s146                          9.170000
s114                          9.230000
z72z114z2                     1.000000
s112                          9.250000
z72z112z2                     1.000000
s201                          9.330000
s241                          9.430000
s183                          7.202558
s64                           7.460000
s38                           8.520000
s188                          8.520000
s79                           7.680000
s194                          8.490651
z183z194z3                    1.000000
s91                           7.710000
s243                          7.800000
s36                           7.930000
s46                           8.930000
z183z46z1                     1.000000
s199                          8.950000
s210                          8.980000
z183z210z1                    1.000000
s68                           8.010000
s44                           9.050000
s95                           9.110000
z183z95z3                     1.000000
s86                           9.126193
s161                          9.140000
s113                          9.150000
s19                           9.170000
s42                           9.190000
s162                          8.255026
s200                          9.310000
s29                           9.350000
s258                          9.380000
z183z258z1                    1.000000
s124                          9.440000
z183z124z3                    1.000000
s240                          7.414006
z240z46z1                     1.000000
z240z210z1                    1.000000
z240z257z2                    1.000000
z240z146z2                    1.000000
z240z114z2                    1.000000
z240z112z2                    1.000000
z240z258z1                    1.000000
s176                          7.523511
z176z199z1                    1.000000
z176z210z1                    1.000000
z176z44z1                     1.000000
z176z86z1                     1.000000
z176z258z1                    1.000000
s109                          7.659549
z109z95z3                     1.000000
z109z86z3                     1.000000
z109z113z1                    1.000000
z109z258z1                    1.000000
z109z124z3                    1.000000
s154                          7.718674
z154z114z2                    1.000000
z154z112z2                    1.000000
z154z201z2                    1.000000
s212                          7.835286
z212z19z3                     1.000000
z212z200z3                    1.000000
z212z201z3                    1.000000
z212z124z3                    1.000000
s233                          7.064495
z233z204z1                    1.000000
z233z210z1                    1.000000
z233z44z3                     1.000000
z233z95z3                     1.000000
z233z258z1                    1.000000
z233z124z3                    1.000000
s51                           8.034086
z51z124z3                     1.000000
s106                          7.977963
z106z124z3                    1.000000
s59                           7.529266
z59z17z2                      1.000000
z59z110z2                     1.000000
z59z221z2                     1.000000
z59z257z2                     1.000000
z59z61z2                      1.000000
z59z114z2                     1.000000
z59z112z2                     1.000000
s93                           5.980330
s192                          7.180000
s237                          7.240000
s18                           7.360000
s25                           7.400960
s231                          7.410000
s169                          7.540000
z93z194z3                     1.000000
z93z267z2                     1.000000
z93z267z3                     1.000000
z93z68z3                      1.000000
z93z257z2                     1.000000
z93z61z2                      1.000000
z93z95z3                      1.000000
z93z161z3                     1.000000
z93z19z3                      1.000000
z93z114z2                     1.000000
z93z162z3                     1.000000
z93z112z2                     1.000000
z93z200z3                     1.000000
z93z124z3                     1.000000
s117                          5.996710
s265                          7.220000
s101                          7.290000
z117z25z1                     1.000000
z117z25z3                     1.000000
z117z38z1                     1.000000
s232                          7.560000
z117z194z3                    1.000000
z117z243z3                    1.000000
z117z46z1                     1.000000
z117z199z1                    1.000000
z117z210z1                    1.000000
z117z68z3                     1.000000
z117z95z3                     1.000000
z117z161z3                    1.000000
z117z19z3                     1.000000
z117z162z3                    1.000000
z117z200z3                    1.000000
z117z258z1                    1.000000
z117z124z3                    1.000000
z25z194z3                     1.000000
z25z146z1                     1.000000
z98z114z2                     1.000000
z98z112z2                     1.000000
z267z113z3                    1.000000
z267z112z2                    1.000000
z162z200z3                    1.000000
All other variables in the range 1-1894 are 0.
